nBusiness = 42;
nMeetings = 125;
nTables = 16;
nTotalSlots = 8;
nMorningSlots = 8;

requested = [|1, 8,3, 
|1, 10,3, 
|1, 12,3, 
|1, 30,3, 
|1, 32,3, 
|2, 29,3, 
|3, 5,3, 
|3, 9,3, 
|3, 10,3, 
|5, 15,3, 
|5, 23,3, 
|6, 1,3, 
|6, 4,3, 
|6, 7,3, 
|6, 8,3, 
|6, 10,3, 
|6, 12,3, 
|6, 27,3, 
|11, 4,3, 
|11, 24,3, 
|11, 25,3, 
|11, 36,3, 
|13, 24,3, 
|13, 30,3, 
|14, 2,3, 
|14, 4,3, 
|14, 15,3, 
|14, 26,3, 
|14, 30,3, 
|14, 32,3, 
|14, 36,3, 
|14, 38,3, 
|17, 8,3, 
|17, 9,3, 
|17, 10,3, 
|17, 12,3, 
|17, 20,3, 
|17, 31,3, 
|18, 4,3, 
|18, 6,3, 
|18, 11,3, 
|18, 15,3, 
|18, 16,3, 
|18, 24,3, 
|18, 25,3, 
|19, 21,3, 
|21, 1,3, 
|21, 4,3, 
|21, 5,3, 
|21, 34,3, 
|22, 3,3, 
|22, 8,3, 
|22, 9,3, 
|22, 10,3, 
|22, 15,3, 
|22, 27,3, 
|22, 28,3, 
|25, 7,3, 
|25, 12,3, 
|26, 4,3, 
|26, 5,3, 
|26, 11,3, 
|26, 24,3, 
|26, 25,3, 
|26, 30,3, 
|27, 1,3, 
|27, 2,3, 
|27, 8,3, 
|27, 9,3, 
|27, 15,3, 
|28, 2,3, 
|28, 3,3, 
|28, 20,3, 
|28, 25,3, 
|28, 29,3, 
|28, 41,3, 
|32, 12,3, 
|32, 24,3, 
|33, 3,3, 
|33, 5,3, 
|33, 9,3, 
|33, 10,3, 
|33, 12,3, 
|33, 20,3, 
|33, 31,3, 
|33, 41,3, 
|34, 5,3, 
|34, 11,3, 
|34, 19,3, 
|34, 27,3, 
|34, 30,3, 
|35, 2,3, 
|35, 3,3, 
|35, 4,3, 
|35, 15,3, 
|35, 16,3, 
|35, 18,3, 
|35, 28,3, 
|35, 29,3, 
|36, 2,3, 
|36, 15,3, 
|36, 21,3, 
|36, 24,3, 
|36, 25,3, 
|36, 30,3, 
|39, 9,3, 
|39, 11,3, 
|39, 15,3, 
|39, 23,3, 
|39, 24,3, 
|39, 30,3, 
|41, 5,3, 
|41, 9,3, 
|41, 10,3, 
|41, 17,3, 
|41, 23,3, 
|41, 25,3, 
|42, 3,3, 
|42, 4,3, 
|42, 8,3, 
|42, 9,3, 
|42, 10,3, 
|42, 20,3, 
|42, 26,3, 
|42, 30,3, 
|];

meetingsxBusiness = [{1,2,3,4,5,6,13,48,67},
{1,7,26,68,72,93,101},
{1,8,9,10,52,73,80,94,119},
{1,14,20,27,40,49,61,95,120},
{1,8,11,12,50,62,81,88,113},
{1,13,14,15,16,17,18,19,41},
{1,15,59},
{1,2,16,34,53,69,121},
{1,9,35,54,70,82,107,114,122},
{1,3,10,17,36,55,83,115,123},
{1,20,21,22,23,42,63,89,108},
{1,4,18,37,60,78,84},
{1,24,25},
{1,26,27,28,29,30,31,32,33},
{1,11,28,43,56,71,96,102,109},
{1,44,97},
{1,34,35,36,37,38,39,116},
{1,40,41,42,43,44,45,46,98},
{1,47,90},
{1,38,74,85,124},
{1,47,48,49,50,51,103},
{1,52,53,54,55,56,57,58},
{1,12,110,117},
{1,21,24,45,64,79,104,111},
{1,22,46,59,60,65,75,105,118},
{1,29,61,62,63,64,65,66,125},
{1,19,57,67,68,69,70,71,91},
{1,58,72,73,74,75,76,77,99},
{1,7,76,100},
{1,5,25,30,66,92,106,112,126},
{1,39,86},
{1,6,31,78,79},
{1,80,81,82,83,84,85,86,87},
{1,51,88,89,90,91,92},
{1,93,94,95,96,97,98,99,100},
{1,23,32,101,102,103,104,105,106},
{1},
{1,33},
{1,107,108,109,110,111,112},
{1},
{1,77,87,113,114,115,116,117,118},
{1,119,120,121,122,123,124,125,126}];

nMeetingsBusiness = [8,6,8,8,8,8,2,6,8,8,8,6,2,8,8,2,7,8,2,4,6,7,3,7,8,8,8,8,3,8,2,4,8,6,8,8,0,1,6,0,8,8];

forbidden = [{0},
{0},
{0},
{0},
{0},
{0},
{0},
{0},
{0},
{0},
{0},
{0},
{0},
{0},
{0},
{0},
{0},
{0},
{0},
{0},
{0},
{0},
{0},
{0},
{0},
{0},
{0},
{0},
{0},
{0},
{0},
{0},
{0},
{0},
{0},
{0},
{0},
{0},
{0},
{0},
{0},
{0}];

fixed = [0,0,0,0,0,0,0,0,0,0,0,0,0,0,0,0,0,0,0,0,0,0,0,0,0,0,0,0,0,0,0,0,0,0,0,0,0,0,0,0,0,0,0,0,0,0,0,0,0,0,0,0,0,0,0,0,0,0,0,0,0,0,0,0,0,0,0,0,0,0,0,0,0,0,0,0,0,0,0,0,0,0,0,0,0,0,0,0,0,0,0,0,0,0,0,0,0,0,0,0,0,0,0,0,0,0,0,0,0,0,0,0,0,0,0,0,0,0,0,0,0,0,0,0,0];

precedences = [{},
{},
{},
{111},
{},
{},
{},
{},
{16},
{},
{87},
{},
{},
{},
{},
{},
{},
{},
{},
{},
{},
{},
{},
{},
{},
{},
{},
{},
{},
{31},
{},
{},
{},
{},
{},
{115},
{},
{},
{},
{15,97},
{},
{},
{},
{},
{},
{},
{},
{},
{},
{},
{},
{},
{},
{51},
{},
{},
{98},
{104},
{},
{},
{},
{},
{},
{},
{28},
{2},
{},
{67},
{},
{},
{},
{},
{},
{},
{},
{},
{},
{63},
{},
{},
{},
{},
{},
{},
{81},
{},
{},
{},
{},
{},
{},
{},
{118},
{13},
{27},
{},
{94},
{},
{},
{},
{},
{},
{101},
{},
{},
{},
{88},
{},
{},
{},
{},
{},
{},
{},
{},
{},
{76},
{},
{},
{},
{34},
{},
{120},
{},
{}];

